1 0 1 0
2 0 2 0
3 0 1 8
5 0 1 13
0 0 2 5
1 1 2 8
2 1 3 5
0 1 0 6
4 0 2 13
2 2 5 9
3 1 0 13
0 2 1 16
4 1 1 22
5 1 3 16
3 2 2 22
3 3 3 27
5 2 5 19
0 3 3 30
1 2 4 13
2 3 0 18
1 3 5 28
4 2 4 25
2 4 1 27
5 3 0 28
0 4 5 38
1 4 0 38
3 4 4 30
2 5 4 38
1 5 3 48
4 3 5 41
4 4 0 48
5 4 4 45
3 5 5 45
5 5 2 49
4 5 3 52
0 5 4 49
